50
6906

709 431
762 832
716 604
620 311
135 250
252 791
926 965
105 34
105 867
657 784
466 108
592 231
931 832
469 670
803 129
170 526
698 810
331 309
266 771
692 260
901 133
737 4
447 527
932 224
473 651
887 945
325 916
540 741
428 580
292 557
355 541
764 118
21 659
946 719
379 508
174 643
125 501
656 994
880 837
711 482
122 80
425 84
802 986
677 789
673 274
173 392
221 86
168 120
604 349
82 182
